data;

param a :=
  1  85.334407
  2   0.0056858
  3   0.0006262
  4   0.0022053
  5  80.51249
  6   0.0071317
  7   0.0029955
  8   0.0021813
  9   9.300961
 10   0.0047026
 11   0.0012547
 12   0.0019085
  ;

param l :=
  1  78
  2  33
  3  27
  4  27
  5  27
  ;

param u :=
  1  102
  2  45
  3  45
  4  45
  5  45
  ;